robust/generate/spp_dkp_Lefebvre_et_al_2026/src/shortest_path_4_7.kp
49
69

[2.08 1.7 6.39 6.15 4.71 3.91 3.77 1.45 5.31 6.18]

[69 2 66 18 4 68 25 60 26 9]
